============================[ Problem Statistics ]=============================|                                                                             ||  Number of variables:          4242                                         ||  Number of clauses:            9761                                         ||  Parse time:                   0.17 s                                       ||                                                                             |============================[ Search Statistics ]==============================| Conflicts |          ORIGINAL         |          LEARNT          | Progress ||           |    Vars  Clauses Literals |    Limit  Clauses Lit/Cl |          |==============================================================================================================================================================restarts              : 1conflicts             : 98             (336 /sec)decisions             : 184            (0.00 % random) (630 /sec)propagations          : 8256           (28274 /sec)conflict literals     : 5163           (95.99 % deleted)CPU time              : 0.292 sSATISFIABLE